p cnf 82 425
-19 -20 0
-19 -21 0
-19 -22 0
-20 -21 0
-20 -22 0
-21 -22 0
19 20 21 22 0
-23 -24 0
-23 -25 0
-23 -26 0
-24 -25 0
-24 -26 0
-25 -26 0
23 24 25 26 0
-19 -23 0
-20 -24 0
-21 -25 0
-22 -26 0
1 -19 0
1 -23 0
2 -20 0
2 -24 0
3 -21 0
3 -25 0
4 -22 0
4 -26 0
5 -19 0
5 -23 0
6 -20 0
6 -24 0
7 -21 0
7 -25 0
8 -22 0
8 -26 0
9 -19 0
9 -23 0
10 -20 0
10 -24 0
11 -21 0
11 -25 0
12 -22 0
12 -26 0
13 -19 -24 0
13 -23 -20 0
14 -19 -25 0
14 -23 -21 0
15 -19 -26 0
15 -23 -22 0
16 -20 -25 0
16 -24 -21 0
17 -20 -26 0
17 -24 -22 0
18 -21 -26 0
18 -25 -22 0
-27 -28 0
-27 -29 0
-27 -30 0
-27 -31 0
-27 -32 0
-27 -33 0
-27 -34 0
-28 -29 0
-28 -30 0
-28 -31 0
-28 -32 0
-28 -33 0
-28 -34 0
-29 -30 0
-29 -31 0
-29 -32 0
-29 -33 0
-29 -34 0
-30 -31 0
-30 -32 0
-30 -33 0
-30 -34 0
-31 -32 0
-31 -33 0
-31 -34 0
-32 -33 0
-32 -34 0
-33 -34 0
27 28 29 30 31 32 33 34 0
-35 -36 0
-35 -37 0
-35 -38 0
-35 -39 0
-35 -40 0
-35 -41 0
-35 -42 0
-36 -37 0
-36 -38 0
-36 -39 0
-36 -40 0
-36 -41 0
-36 -42 0
-37 -38 0
-37 -39 0
-37 -40 0
-37 -41 0
-37 -42 0
-38 -39 0
-38 -40 0
-38 -41 0
-38 -42 0
-39 -40 0
-39 -41 0
-39 -42 0
-40 -41 0
-40 -42 0
-41 -42 0
35 36 37 38 39 40 41 42 0
-43 -44 0
-43 -45 0
-43 -46 0
-43 -47 0
-43 -48 0
-43 -49 0
-43 -50 0
-44 -45 0
-44 -46 0
-44 -47 0
-44 -48 0
-44 -49 0
-44 -50 0
-45 -46 0
-45 -47 0
-45 -48 0
-45 -49 0
-45 -50 0
-46 -47 0
-46 -48 0
-46 -49 0
-46 -50 0
-47 -48 0
-47 -49 0
-47 -50 0
-48 -49 0
-48 -50 0
-49 -50 0
43 44 45 46 47 48 49 50 0
-51 -52 0
-51 -53 0
-51 -54 0
-51 -55 0
-51 -56 0
-51 -57 0
-51 -58 0
-52 -53 0
-52 -54 0
-52 -55 0
-52 -56 0
-52 -57 0
-52 -58 0
-53 -54 0
-53 -55 0
-53 -56 0
-53 -57 0
-53 -58 0
-54 -55 0
-54 -56 0
-54 -57 0
-54 -58 0
-55 -56 0
-55 -57 0
-55 -58 0
-56 -57 0
-56 -58 0
-57 -58 0
51 52 53 54 55 56 57 58 0
-59 -60 0
-59 -61 0
-59 -62 0
-59 -63 0
-59 -64 0
-59 -65 0
-59 -66 0
-60 -61 0
-60 -62 0
-60 -63 0
-60 -64 0
-60 -65 0
-60 -66 0
-61 -62 0
-61 -63 0
-61 -64 0
-61 -65 0
-61 -66 0
-62 -63 0
-62 -64 0
-62 -65 0
-62 -66 0
-63 -64 0
-63 -65 0
-63 -66 0
-64 -65 0
-64 -66 0
-65 -66 0
59 60 61 62 63 64 65 66 0
-67 -68 0
-67 -69 0
-67 -70 0
-67 -71 0
-67 -72 0
-67 -73 0
-67 -74 0
-68 -69 0
-68 -70 0
-68 -71 0
-68 -72 0
-68 -73 0
-68 -74 0
-69 -70 0
-69 -71 0
-69 -72 0
-69 -73 0
-69 -74 0
-70 -71 0
-70 -72 0
-70 -73 0
-70 -74 0
-71 -72 0
-71 -73 0
-71 -74 0
-72 -73 0
-72 -74 0
-73 -74 0
67 68 69 70 71 72 73 74 0
-75 -76 0
-75 -77 0
-75 -78 0
-75 -79 0
-75 -80 0
-75 -81 0
-75 -82 0
-76 -77 0
-76 -78 0
-76 -79 0
-76 -80 0
-76 -81 0
-76 -82 0
-77 -78 0
-77 -79 0
-77 -80 0
-77 -81 0
-77 -82 0
-78 -79 0
-78 -80 0
-78 -81 0
-78 -82 0
-79 -80 0
-79 -81 0
-79 -82 0
-80 -81 0
-80 -82 0
-81 -82 0
75 76 77 78 79 80 81 82 0
-27 -35 0
-28 -36 0
-29 -37 0
-30 -38 0
-31 -39 0
-32 -40 0
-33 -41 0
-34 -42 0
-27 -43 0
-28 -44 0
-29 -45 0
-30 -46 0
-31 -47 0
-32 -48 0
-33 -49 0
-34 -50 0
-1 -27 -51 0
-1 -28 -52 0
-1 -29 -53 0
-1 -30 -54 0
-1 -31 -55 0
-1 -32 -56 0
-1 -33 -57 0
-1 -34 -58 0
-2 -27 -59 0
-2 -28 -60 0
-2 -29 -61 0
-2 -30 -62 0
-2 -31 -63 0
-2 -32 -64 0
-2 -33 -65 0
-2 -34 -66 0
-3 -27 -67 0
-3 -28 -68 0
-3 -29 -69 0
-3 -30 -70 0
-3 -31 -71 0
-3 -32 -72 0
-3 -33 -73 0
-3 -34 -74 0
-4 -27 -75 0
-4 -28 -76 0
-4 -29 -77 0
-4 -30 -78 0
-4 -31 -79 0
-4 -32 -80 0
-4 -33 -81 0
-4 -34 -82 0
-35 -43 0
-36 -44 0
-37 -45 0
-38 -46 0
-39 -47 0
-40 -48 0
-41 -49 0
-42 -50 0
-5 -35 -51 0
-5 -36 -52 0
-5 -37 -53 0
-5 -38 -54 0
-5 -39 -55 0
-5 -40 -56 0
-5 -41 -57 0
-5 -42 -58 0
-6 -35 -59 0
-6 -36 -60 0
-6 -37 -61 0
-6 -38 -62 0
-6 -39 -63 0
-6 -40 -64 0
-6 -41 -65 0
-6 -42 -66 0
-7 -35 -67 0
-7 -36 -68 0
-7 -37 -69 0
-7 -38 -70 0
-7 -39 -71 0
-7 -40 -72 0
-7 -41 -73 0
-7 -42 -74 0
-8 -35 -75 0
-8 -36 -76 0
-8 -37 -77 0
-8 -38 -78 0
-8 -39 -79 0
-8 -40 -80 0
-8 -41 -81 0
-8 -42 -82 0
-9 -43 -51 0
-9 -44 -52 0
-9 -45 -53 0
-9 -46 -54 0
-9 -47 -55 0
-9 -48 -56 0
-9 -49 -57 0
-9 -50 -58 0
-10 -43 -59 0
-10 -44 -60 0
-10 -45 -61 0
-10 -46 -62 0
-10 -47 -63 0
-10 -48 -64 0
-10 -49 -65 0
-10 -50 -66 0
-11 -43 -67 0
-11 -44 -68 0
-11 -45 -69 0
-11 -46 -70 0
-11 -47 -71 0
-11 -48 -72 0
-11 -49 -73 0
-11 -50 -74 0
-12 -43 -75 0
-12 -44 -76 0
-12 -45 -77 0
-12 -46 -78 0
-12 -47 -79 0
-12 -48 -80 0
-12 -49 -81 0
-12 -50 -82 0
-13 -51 -59 0
-13 -52 -60 0
-13 -53 -61 0
-13 -54 -62 0
-13 -55 -63 0
-13 -56 -64 0
-13 -57 -65 0
-13 -58 -66 0
-14 -51 -67 0
-14 -52 -68 0
-14 -53 -69 0
-14 -54 -70 0
-14 -55 -71 0
-14 -56 -72 0
-14 -57 -73 0
-14 -58 -74 0
-15 -51 -75 0
-15 -52 -76 0
-15 -53 -77 0
-15 -54 -78 0
-15 -55 -79 0
-15 -56 -80 0
-15 -57 -81 0
-15 -58 -82 0
-16 -59 -67 0
-16 -60 -68 0
-16 -61 -69 0
-16 -62 -70 0
-16 -63 -71 0
-16 -64 -72 0
-16 -65 -73 0
-16 -66 -74 0
-17 -59 -75 0
-17 -60 -76 0
-17 -61 -77 0
-17 -62 -78 0
-17 -63 -79 0
-17 -64 -80 0
-17 -65 -81 0
-17 -66 -82 0
-18 -67 -75 0
-18 -68 -76 0
-18 -69 -77 0
-18 -70 -78 0
-18 -71 -79 0
-18 -72 -80 0
-18 -73 -81 0
-18 -74 -82 0
